c description: Random 3-CNF over 12 variables and 60 clauses
p cnf 12 60
-4 -5 -11 0
-9 10 11 0
-3 -4 5 0
-3 5 -11 0
3 -4 12 0
1 -9 11 0
5 -6 -9 0
-1 7 -11 0
5 7 -11 0
2 3 12 0
-4 8 -11 0
8 9 -12 0
-5 10 12 0
-6 9 10 0
-3 -5 -11 0
-1 -2 -7 0
2 -6 12 0
-1 -7 12 0
3 4 -10 0
-3 -9 -10 0
3 -9 10 0
-2 -4 -9 0
2 6 7 0
3 4 9 0
-4 8 -12 0
1 -3 -7 0
8 -11 -12 0
3 10 11 0
3 4 -11 0
3 6 -9 0
-3 -5 8 0
4 5 -10 0
-4 5 -7 0
8 -11 12 0
-1 10 -11 0
-1 4 -7 0
2 -4 6 0
-5 6 8 0
1 -2 -11 0
1 -6 8 0
-4 10 11 0
-4 6 -8 0
3 -4 -6 0
-1 -2 3 0
5 8 12 0
4 -8 -12 0
5 -6 10 0
1 -3 7 0
-2 4 5 0
-6 7 -12 0
-2 4 -5 0
3 7 11 0
8 11 -12 0
-4 -11 12 0
-3 10 11 0
-5 -7 9 0
-1 -5 -12 0
-1 4 6 0
-1 -4 -12 0
-2 3 -4 0